datasets/2-dimensional/CL_06_25_03.vbp
2
150 150 
25
77 88 30
24 79 72
30 43 4
32 53 88
74 45 54
67 65 64
30 23 90
87 97 26
69 91 94
74 77 28
66 73 72
36 42 49
82 56 54
89 53 19
47 77 28
55 40 61
77 38 84
24 38 23
73 28 67
29 28 53
44 82 54
55 21 16
27 23 9
30 52 54
82 99 77
