datasets/2-dimensional/CL_06_25_03.txt
150 150 
0 30 77 88 
1 72 24 79 
2 4 30 43 
3 88 32 53 
4 54 74 45 
5 64 67 65 
6 90 30 23 
7 26 87 97 
8 94 69 91 
9 28 74 77 
10 72 66 73 
11 49 36 42 
12 54 82 56 
13 19 89 53 
14 28 47 77 
15 61 55 40 
16 84 77 38 
17 23 24 38 
18 67 73 28 
19 53 29 28 
20 54 44 82 
21 16 55 21 
22 9 27 23 
23 54 30 52 
24 77 82 99 
